\Problem name: 

Minimize
OBJROW: - var(0) - var(1) - var(2) - var(3)
Subject To
constr(0):  var(2) <= 218.94597
constr(1):  var(3) <= 481.37036
constr(2):  var(2) + var(3) <= 481.37036
constr(3):  var(0) <= 282.84271
constr(4):  var(1) <= 368.45532
constr(5):  var(3) <= 391.93787
constr(6):  var(0) + var(1) <= 368.45532
constr(7):  var(0) + var(3) <= 391.93787
constr(8):  var(1) + var(3) <= 441.80591
constr(9):  var(0) + var(1) + var(3) <= 441.80591
constr(10):  var(1) <= 479.28815
constr(11):  var(2) <= 207.62738
constr(12):  var(1) + var(2) <= 479.28815
Bounds
End
